54025
30 24 299
24 10 545
10 44 436
44 51 722
51 14 631
14 45 658
45 38 214
38 35 503
35 15 938
15 28 1147
28 21 544
21 9 117
9 33 925
33 52 396
52 22 388
22 20 176
20 16 638
16 47 415
47 48 761
48 18 934
18 43 1282
43 7 383
7 37 368
37 31 1020
31 40 362
40 12 686
12 50 644
50 36 590
36 4 467
4 34 323
34 23 296
23 49 868
49 19 763
19 6 846
6 39 1176
39 42 1279
42 2 1096
2 5 385
5 27 404
27 54 487
54 25 397
25 53 967
53 46 491
46 29 944
29 3 380
3 17 606
17 11 768
11 8 723
8 13 471
13 1 433
1 41 1722
41 32 4807
32 0 7621
0 26 4123
26 30 4460
